problem_generation/data/GISP/train/er_n=64_m=1235_p=0.60_SET2_setparam=100.00_alpha=0.50_825.lp
maximize
OBJ:100x0 + 100x1 + 100x2 + 100x3 + 100x4 + 100x5 + 100x6 + 100x7 + 100x8 + 100x9 + 100x10 + 100x11 + 100x12 + 100x13 + 100x14 + 100x15 + 100x16 + 100x17 + 100x18 + 100x19 + 100x20 + 100x21 + 100x22 + 100x23 + 100x24 + 100x25 + 100x26 + 100x27 + 100x28 + 100x29 + 100x30 + 100x31 + 100x32 + 100x33 + 100x34 + 100x35 + 100x36 + 100x37 + 100x38 + 100x39 + 100x40 + 100x41 + 100x42 + 100x43 + 100x44 + 100x45 + 100x46 + 100x47 + 100x48 + 100x49 + 100x50 + 100x51 + 100x52 + 100x53 + 100x54 + 100x55 + 100x56 + 100x57 + 100x58 + 100x59 + 100x60 + 100x61 + 100x62 + 100x63 - y15_21 - y26_30 - y18_26 - y47_62 - y17_58 - y29_32 - y9_63 - y21_37 - y40_50 - y21_46 - y0_23 - y33_38 - y2_32 - y25_34 - y25_43 - y3_6 - y14_15 - y10_63 - y2_59 - y25_61 - y3_42 - y14_42 - y55_61 - y47_57 - y17_53 - y28_53 - y7_30 - y9_49 - y18_30 - y9_58 - y29_36 - y40_45 - y6_52 - y29_54 - y40_54 - y25_29 - y2_36 - y25_38 - y2_45 - y3_28 - y14_37 - y16_56 - y47_52 - y47_61 - y17_57 - y21_36 - y6_56 - y40_58 - y2_13 - y10_26 - y39_62 - y10_35 - y2_31 - y25_33 - y2_49 - y3_14 - y43_50 - y35_46 - y14_23 - y1_53 - y36_38 - y17_34 - y28_43 - y36_56 - y9_39 - y47_56 - y5_59 - y6_24 - y28_61 - y50_58 - y6_33 - y29_35 - y6_42 - y29_44 - y40_44 - y21_40 - y6_51 - y10_12 - y2_17 - y20_62 - y12_58 - y23_58 - y2_35 - y3_9 - y43_54 - y35_50 - y32_63 - y17_29 - y28_29 - y9_25 - y5_36 - y47_51 - y9_34 - y6_10 - y5_54 - y6_19 - y21_26 - y61_62 - y21_35 - y2_3 - y39_52 - y2_12 - y62_63 - y12_62 - y13_27 - y23_62 - y13_45 - y24_45 - y35_45 - y16_41 - y43_58 - y1_52 - y13_63 - y5_22 - y9_29 - y5_40 - y28_42 - y9_38 - y5_49 - y9_47 - y58_61 - y27_55 - y42_53 - y19_60 - y42_62 - y20_34 - y12_39 - y23_39 - y2_16 - y12_48 - y20_61 - y4_44 - y12_57 - y13_22 - y32_35 - y16_18 - y24_31 - y13_40 - y1_47 - y16_45 - y35_58 - y16_54 - y9_15 - y17_28 - y38_60 - y6_18 - y27_50 - y50_52 - y50_61 - y19_55 - y42_57 - y20_38 - y39_51 - y2_11 - y12_43 - y12_61 - y13_26 - y4_57 - y13_44 - y16_40 - y5_21 - y17_23 - y9_19 - y15_53 - y26_53 - y49_55 - y26_62 - y19_41 - y42_43 - y50_56 - y19_50 - y30_50 - y8_59 - y19_59 - y20_24 - y31_42 - y20_51 - y4_43 - y13_21 - y4_52 - y45_53 - y16_26 - y1_37 - y5_7 - y5_16 - y46_54 - y9_14 - y5_25 - y46_63 - y8_27 - y19_36 - y30_36 - y27_49 - y11_32 - y50_51 - y30_45 - y0_41 - y11_41 - y30_54 - y0_50 - y30_63 - y39_41 - y23_24 - y52_60 - y4_20 - y23_33 - y12_42 - y45_48 - y1_23 - y37_44 - y16_21 - y45_57 - y14_60 - y26_34 - y26_43 - y38_45 - y18_39 - y15_52 - y49_54 - y7_48 - y26_61 - y38_63 - y7_57 - y18_57 - y19_22 - y0_18 - y8_31 - y19_31 - y0_27 - y30_40 - y0_36 - y11_45 - y30_58 - y11_54 - y52_55 - y12_28 - y44_60 - y12_37 - y4_33 - y1_9 - y22_41 - y34_52 - y14_46 - y22_59 - y14_55 - y38_40 - y15_47 - y38_49 - y18_52 - y8_17 - y27_30 - y19_26 - y48_62 - y11_22 - y30_35 - y0_31 - y11_31 - y0_40 - y41_50 - y60_63 - y12_23 - y41_59 - y4_19 - y44_55 - y4_28 - y25_60 - y22_36 - y22_45 - y14_41 - y45_56 - y3_50 - y14_50 - y3_59 - y37_61 - y18_20 - y7_29 - y26_51 - y18_47 - y48_57 - y8_30 - y11_26 - y29_62 - y21_58 - y41_45 - y33_50 - y52_63 - y10_57 - y44_59 - y2_53 - y22_40 - y3_36 - y37_38 - y22_49 - y14_45 - y22_58 - y3_54 - y15_19 - y14_63 - y7_24 - y36_60 - y59_62 - y7_33 - y18_33 - y7_42 - y29_39 - y0_12 - y0_21 - y6_55 - y11_21 - y21_53 - y41_49 - y25_32 - y33_45 - y41_58 - y44_54 - y10_61 - y44_63 - y25_59 - y34_37 - y14_40 - y37_42 - y3_49 - y7_10 - y15_23 - y55_59 - y7_19 - y26_32 - y17_51 - y17_60 - y28_60 - y29_43 - y0_16 - y11_16 - y40_52 - y21_48 - y6_59 - y40_61 - y25_36 - y33_49 - y44_49 - y2_43 - y51_57 - y14_17 - y2_61 - y3_26 - y43_62 - y22_39 - y24_58 - y14_35 - y7_14 - y36_50 - y9_42 - y9_60 - y21_25 - y6_36 - y29_47 - y29_56 - y6_63 - y21_61 - y25_40 - y3_12 - y32_48 - y22_25 - y51_61 - y2_56 - y32_57 - y13_53 - y24_53 - y3_30 - y35_53 - y16_58 - y17_32 - y28_41 - y36_54 - y17_50 - y9_46 - y17_59 - y9_55 - y6_31 - y29_33 - y21_29 - y29_42 - y40_42 - y6_58 - y2_6 - y2_24 - y25_26 - y31_60 - y32_34 - y35_39 - y14_16 - y32_52 - y43_52 - y13_48 - y35_48 - y3_25 - y16_44 - y43_61 - y13_57 - y9_23 - y17_36 - y5_34 - y28_36 - y9_32 - y5_43 - y28_45 - y47_58 - y17_54 - y6_44 - y39_50 - y20_46 - y31_46 - y12_51 - y2_28 - y12_60 - y4_56 - y24_34 - y3_11 - y13_43 - y24_43 - y43_56 - y16_39 - y35_52 - y24_61 - y16_57 - y17_22 - y9_18 - y5_29 - y28_40 - y3_56 - y9_36 - y28_49 - y58_59 - y9_54 - y21_28 - y6_39 - y19_58 - y11_63 - y39_45 - y31_50 - y12_46 - y2_23 - y31_59 - y54_61 - y13_20 - y4_51 - y32_33 - y4_60 - y16_25 - y16_34 - y35_47 - y16_43 - y24_56 - y35_56 - y46_53 - y9_13 - y16_61 - y5_24 - y36_39 - y28_35 - y28_44 - y6_7 - y9_40 - y5_51 - y6_25 - y42_46 - y50_59 - y8_62 - y11_58 - y39_40 - y12_32 - y20_45 - y12_50 - y20_63 - y24_33 - y43_46 - y16_29 - y13_42 - y24_42 - y17_21 - y46_57 - y38_53 - y5_28 - y17_30 - y26_60 - y38_62 - y9_35 - y27_52 - y42_50 - y50_63 - y19_57 - y20_22 - y30_57 - y12_18 - y20_31 - y11_62 - y12_27 - y39_44 - y4_23 - y39_53 - y23_45 - y20_58 - y31_58 - y23_63 - y13_28 - y16_33 - y16_42 - y38_48 - y5_23 - y9_21 - y26_55 - y27_29 - y27_38 - y19_34 - y30_34 - y27_56 - y0_39 - y8_52 - y42_54 - y12_13 - y30_61 - y11_57 - y4_36 - y23_49 - y4_45 - y45_55 - y1_30 - y1_39 - y26_41 - y38_43 - y38_52 - y7_46 - y18_46 - y38_61 - y49_61 - y27_42 - y0_25 - y8_38 - y30_38 - y8_47 - y19_47 - y30_47 - y0_43 - y42_49 - y8_56 - y12_17 - y41_53 - y0_61 - y23_26 - y52_62 - y4_22 - y23_35 - y4_31 - y13_18 - y22_48 - y34_50 - y45_50 - y45_59 - y56_59 - y3_53 - y14_62 - y15_27 - y15_36 - y5_13 - y46_51 - y26_45 - y0_20 - y8_33 - y0_29 - y8_42 - y0_38 - y60_61 - y4_8 - y41_57 - y4_35 - y22_34 - y14_39 - y3_48 - y14_48 - y34_63 - y37_50 - y56_63 - y3_57 - y15_22 - y26_31 - y7_36 - y15_49 - y18_45 - y18_54 - y8_28 - y0_24 - y8_37 - y21_56 - y30_37 - y41_52 - y10_46 - y52_61 - y10_55 - y33_57 - y44_57 - y2_51 - y25_62 - y22_38 - y3_34 - y45_49 - y3_43 - y22_56 - y56_58 - y14_52 - y3_61 - y55_62 - y18_22 - y26_35 - y7_49 - y18_49 - y48_50 - y29_46 - y48_59 - y0_19 - y11_19 - y40_55 - y21_51 - y0_28 - y11_28 - y10_41 - y33_43 - y25_39 - y4_16 - y10_59 - y25_57 - y14_29 - y37_40 - y22_51 - y37_49 - y14_56
 Subject to
C1: x0+x1 <=1 
C2: x0+x3 <=1 
C3: x0+x5 <=1 
C4: x0+x7 <=1 
C5: x0+x8 <=1 
C6: x0+x10 <=1 
C7: x0+x11 <=1 
C8: x0+x12-y0_12 <=1 
C9: x0+x15 <=1 
C10: x0+x16-y0_16 <=1 
C11: x0+x18-y0_18 <=1 
C12: x0+x19-y0_19 <=1 
C13: x0+x20-y0_20 <=1 
C14: x0+x21-y0_21 <=1 
C15: x0+x22 <=1 
C16: x0+x23-y0_23 <=1 
C17: x0+x24-y0_24 <=1 
C18: x0+x25-y0_25 <=1 
C19: x0+x26 <=1 
C20: x0+x27-y0_27 <=1 
C21: x0+x28-y0_28 <=1 
C22: x0+x29-y0_29 <=1 
C23: x0+x31-y0_31 <=1 
C24: x0+x36-y0_36 <=1 
C25: x0+x38-y0_38 <=1 
C26: x0+x39-y0_39 <=1 
C27: x0+x40-y0_40 <=1 
C28: x0+x41-y0_41 <=1 
C29: x0+x43-y0_43 <=1 
C30: x0+x50-y0_50 <=1 
C31: x0+x51 <=1 
C32: x0+x52 <=1 
C33: x0+x55 <=1 
C34: x0+x56 <=1 
C35: x0+x58 <=1 
C36: x0+x59 <=1 
C37: x0+x60 <=1 
C38: x0+x61-y0_61 <=1 
C39: x0+x63 <=1 
C40: x1+x4 <=1 
C41: x1+x5 <=1 
C42: x1+x6 <=1 
C43: x1+x8 <=1 
C44: x1+x9-y1_9 <=1 
C45: x1+x14 <=1 
C46: x1+x16 <=1 
C47: x1+x17 <=1 
C48: x1+x18 <=1 
C49: x1+x21 <=1 
C50: x1+x22 <=1 
C51: x1+x23-y1_23 <=1 
C52: x1+x27 <=1 
C53: x1+x29 <=1 
C54: x1+x30-y1_30 <=1 
C55: x1+x31 <=1 
C56: x1+x32 <=1 
C57: x1+x34 <=1 
C58: x1+x37-y1_37 <=1 
C59: x1+x39-y1_39 <=1 
C60: x1+x43 <=1 
C61: x1+x44 <=1 
C62: x1+x45 <=1 
C63: x1+x46 <=1 
C64: x1+x47-y1_47 <=1 
C65: x1+x52-y1_52 <=1 
C66: x1+x53-y1_53 <=1 
C67: x1+x56 <=1 
C68: x1+x57 <=1 
C69: x1+x59 <=1 
C70: x1+x60 <=1 
C71: x1+x61 <=1 
C72: x1+x62 <=1 
C73: x2+x3-y2_3 <=1 
C74: x2+x4 <=1 
C75: x2+x5 <=1 
C76: x2+x6-y2_6 <=1 
C77: x2+x7 <=1 
C78: x2+x8 <=1 
C79: x2+x10 <=1 
C80: x2+x11-y2_11 <=1 
C81: x2+x12-y2_12 <=1 
C82: x2+x13-y2_13 <=1 
C83: x2+x16-y2_16 <=1 
C84: x2+x17-y2_17 <=1 
C85: x2+x18 <=1 
C86: x2+x19 <=1 
C87: x2+x20 <=1 
C88: x2+x22 <=1 
C89: x2+x23-y2_23 <=1 
C90: x2+x24-y2_24 <=1 
C91: x2+x28-y2_28 <=1 
C92: x2+x31-y2_31 <=1 
C93: x2+x32-y2_32 <=1 
C94: x2+x33 <=1 
C95: x2+x35-y2_35 <=1 
C96: x2+x36-y2_36 <=1 
C97: x2+x37 <=1 
C98: x2+x38 <=1 
C99: x2+x39 <=1 
C100: x2+x42 <=1 
C101: x2+x43-y2_43 <=1 
C102: x2+x44 <=1 
C103: x2+x45-y2_45 <=1 
C104: x2+x48 <=1 
C105: x2+x49-y2_49 <=1 
C106: x2+x51-y2_51 <=1 
C107: x2+x52 <=1 
C108: x2+x53-y2_53 <=1 
C109: x2+x54 <=1 
C110: x2+x56-y2_56 <=1 
C111: x2+x58 <=1 
C112: x2+x59-y2_59 <=1 
C113: x2+x61-y2_61 <=1 
C114: x2+x63 <=1 
C115: x3+x4 <=1 
C116: x3+x6-y3_6 <=1 
C117: x3+x9-y3_9 <=1 
C118: x3+x11-y3_11 <=1 
C119: x3+x12-y3_12 <=1 
C120: x3+x14-y3_14 <=1 
C121: x3+x16 <=1 
C122: x3+x18 <=1 
C123: x3+x21 <=1 
C124: x3+x23 <=1 
C125: x3+x24 <=1 
C126: x3+x25-y3_25 <=1 
C127: x3+x26-y3_26 <=1 
C128: x3+x27 <=1 
C129: x3+x28-y3_28 <=1 
C130: x3+x30-y3_30 <=1 
C131: x3+x33 <=1 
C132: x3+x34-y3_34 <=1 
C133: x3+x35 <=1 
C134: x3+x36-y3_36 <=1 
C135: x3+x37 <=1 
C136: x3+x38 <=1 
C137: x3+x40 <=1 
C138: x3+x41 <=1 
C139: x3+x42-y3_42 <=1 
C140: x3+x43-y3_43 <=1 
C141: x3+x46 <=1 
C142: x3+x48-y3_48 <=1 
C143: x3+x49-y3_49 <=1 
C144: x3+x50-y3_50 <=1 
C145: x3+x52 <=1 
C146: x3+x53-y3_53 <=1 
C147: x3+x54-y3_54 <=1 
C148: x3+x55 <=1 
C149: x3+x56-y3_56 <=1 
C150: x3+x57-y3_57 <=1 
C151: x3+x58 <=1 
C152: x3+x59-y3_59 <=1 
C153: x3+x60 <=1 
C154: x3+x61-y3_61 <=1 
C155: x3+x63 <=1 
C156: x4+x6 <=1 
C157: x4+x8-y4_8 <=1 
C158: x4+x9 <=1 
C159: x4+x11 <=1 
C160: x4+x16-y4_16 <=1 
C161: x4+x19-y4_19 <=1 
C162: x4+x20-y4_20 <=1 
C163: x4+x22-y4_22 <=1 
C164: x4+x23-y4_23 <=1 
C165: x4+x26 <=1 
C166: x4+x27 <=1 
C167: x4+x28-y4_28 <=1 
C168: x4+x30 <=1 
C169: x4+x31-y4_31 <=1 
C170: x4+x32 <=1 
C171: x4+x33-y4_33 <=1 
C172: x4+x34 <=1 
C173: x4+x35-y4_35 <=1 
C174: x4+x36-y4_36 <=1 
C175: x4+x38 <=1 
C176: x4+x39 <=1 
C177: x4+x42 <=1 
C178: x4+x43-y4_43 <=1 
C179: x4+x44-y4_44 <=1 
C180: x4+x45-y4_45 <=1 
C181: x4+x46 <=1 
C182: x4+x51-y4_51 <=1 
C183: x4+x52-y4_52 <=1 
C184: x4+x56-y4_56 <=1 
C185: x4+x57-y4_57 <=1 
C186: x4+x58 <=1 
C187: x4+x59 <=1 
C188: x4+x60-y4_60 <=1 
C189: x4+x62 <=1 
C190: x5+x7-y5_7 <=1 
C191: x5+x12 <=1 
C192: x5+x13-y5_13 <=1 
C193: x5+x14 <=1 
C194: x5+x15 <=1 
C195: x5+x16-y5_16 <=1 
C196: x5+x18 <=1 
C197: x5+x19 <=1 
C198: x5+x20 <=1 
C199: x5+x21-y5_21 <=1 
C200: x5+x22-y5_22 <=1 
C201: x5+x23-y5_23 <=1 
C202: x5+x24-y5_24 <=1 
C203: x5+x25-y5_25 <=1 
C204: x5+x27 <=1 
C205: x5+x28-y5_28 <=1 
C206: x5+x29-y5_29 <=1 
C207: x5+x31 <=1 
C208: x5+x32 <=1 
C209: x5+x33 <=1 
C210: x5+x34-y5_34 <=1 
C211: x5+x35 <=1 
C212: x5+x36-y5_36 <=1 
C213: x5+x39 <=1 
C214: x5+x40-y5_40 <=1 
C215: x5+x41 <=1 
C216: x5+x42 <=1 
C217: x5+x43-y5_43 <=1 
C218: x5+x45 <=1 
C219: x5+x49-y5_49 <=1 
C220: x5+x51-y5_51 <=1 
C221: x5+x52 <=1 
C222: x5+x53 <=1 
C223: x5+x54-y5_54 <=1 
C224: x5+x55 <=1 
C225: x5+x56 <=1 
C226: x5+x57 <=1 
C227: x5+x58 <=1 
C228: x5+x59-y5_59 <=1 
C229: x5+x60 <=1 
C230: x6+x7-y6_7 <=1 
C231: x6+x9 <=1 
C232: x6+x10-y6_10 <=1 
C233: x6+x11 <=1 
C234: x6+x13 <=1 
C235: x6+x14 <=1 
C236: x6+x17 <=1 
C237: x6+x18-y6_18 <=1 
C238: x6+x19-y6_19 <=1 
C239: x6+x21 <=1 
C240: x6+x24-y6_24 <=1 
C241: x6+x25-y6_25 <=1 
C242: x6+x29 <=1 
C243: x6+x30 <=1 
C244: x6+x31-y6_31 <=1 
C245: x6+x33-y6_33 <=1 
C246: x6+x36-y6_36 <=1 
C247: x6+x37 <=1 
C248: x6+x39-y6_39 <=1 
C249: x6+x41 <=1 
C250: x6+x42-y6_42 <=1 
C251: x6+x44-y6_44 <=1 
C252: x6+x47 <=1 
C253: x6+x51-y6_51 <=1 
C254: x6+x52-y6_52 <=1 
C255: x6+x54 <=1 
C256: x6+x55-y6_55 <=1 
C257: x6+x56-y6_56 <=1 
C258: x6+x58-y6_58 <=1 
C259: x6+x59-y6_59 <=1 
C260: x6+x60 <=1 
C261: x6+x63-y6_63 <=1 
C262: x7+x8 <=1 
C263: x7+x9 <=1 
C264: x7+x10-y7_10 <=1 
C265: x7+x14-y7_14 <=1 
C266: x7+x15 <=1 
C267: x7+x17 <=1 
C268: x7+x19-y7_19 <=1 
C269: x7+x20 <=1 
C270: x7+x24-y7_24 <=1 
C271: x7+x25 <=1 
C272: x7+x26 <=1 
C273: x7+x27 <=1 
C274: x7+x28 <=1 
C275: x7+x29-y7_29 <=1 
C276: x7+x30-y7_30 <=1 
C277: x7+x31 <=1 
C278: x7+x33-y7_33 <=1 
C279: x7+x36-y7_36 <=1 
C280: x7+x40 <=1 
C281: x7+x41 <=1 
C282: x7+x42-y7_42 <=1 
C283: x7+x46-y7_46 <=1 
C284: x7+x48-y7_48 <=1 
C285: x7+x49-y7_49 <=1 
C286: x7+x50 <=1 
C287: x7+x51 <=1 
C288: x7+x52 <=1 
C289: x7+x54 <=1 
C290: x7+x56 <=1 
C291: x7+x57-y7_57 <=1 
C292: x7+x60 <=1 
C293: x7+x61 <=1 
C294: x8+x12 <=1 
C295: x8+x17-y8_17 <=1 
C296: x8+x18 <=1 
C297: x8+x19 <=1 
C298: x8+x21 <=1 
C299: x8+x23 <=1 
C300: x8+x24 <=1 
C301: x8+x27-y8_27 <=1 
C302: x8+x28-y8_28 <=1 
C303: x8+x30-y8_30 <=1 
C304: x8+x31-y8_31 <=1 
C305: x8+x33-y8_33 <=1 
C306: x8+x34 <=1 
C307: x8+x35 <=1 
C308: x8+x36 <=1 
C309: x8+x37-y8_37 <=1 
C310: x8+x38-y8_38 <=1 
C311: x8+x40 <=1 
C312: x8+x42-y8_42 <=1 
C313: x8+x43 <=1 
C314: x8+x44 <=1 
C315: x8+x47-y8_47 <=1 
C316: x8+x51 <=1 
C317: x8+x52-y8_52 <=1 
C318: x8+x53 <=1 
C319: x8+x55 <=1 
C320: x8+x56-y8_56 <=1 
C321: x8+x59-y8_59 <=1 
C322: x8+x60 <=1 
C323: x8+x61 <=1 
C324: x8+x62-y8_62 <=1 
C325: x8+x63 <=1 
C326: x9+x10 <=1 
C327: x9+x11 <=1 
C328: x9+x12 <=1 
C329: x9+x13-y9_13 <=1 
C330: x9+x14-y9_14 <=1 
C331: x9+x15-y9_15 <=1 
C332: x9+x17 <=1 
C333: x9+x18-y9_18 <=1 
C334: x9+x19-y9_19 <=1 
C335: x9+x20 <=1 
C336: x9+x21-y9_21 <=1 
C337: x9+x22 <=1 
C338: x9+x23-y9_23 <=1 
C339: x9+x24 <=1 
C340: x9+x25-y9_25 <=1 
C341: x9+x29-y9_29 <=1 
C342: x9+x30 <=1 
C343: x9+x31 <=1 
C344: x9+x32-y9_32 <=1 
C345: x9+x34-y9_34 <=1 
C346: x9+x35-y9_35 <=1 
C347: x9+x36-y9_36 <=1 
C348: x9+x37 <=1 
C349: x9+x38-y9_38 <=1 
C350: x9+x39-y9_39 <=1 
C351: x9+x40-y9_40 <=1 
C352: x9+x42-y9_42 <=1 
C353: x9+x43 <=1 
C354: x9+x45 <=1 
C355: x9+x46-y9_46 <=1 
C356: x9+x47-y9_47 <=1 
C357: x9+x49-y9_49 <=1 
C358: x9+x52 <=1 
C359: x9+x54-y9_54 <=1 
C360: x9+x55-y9_55 <=1 
C361: x9+x58-y9_58 <=1 
C362: x9+x60-y9_60 <=1 
C363: x9+x63-y9_63 <=1 
C364: x10+x12-y10_12 <=1 
C365: x10+x14 <=1 
C366: x10+x15 <=1 
C367: x10+x16 <=1 
C368: x10+x17 <=1 
C369: x10+x19 <=1 
C370: x10+x21 <=1 
C371: x10+x22 <=1 
C372: x10+x23 <=1 
C373: x10+x24 <=1 
C374: x10+x25 <=1 
C375: x10+x26-y10_26 <=1 
C376: x10+x29 <=1 
C377: x10+x30 <=1 
C378: x10+x32 <=1 
C379: x10+x33 <=1 
C380: x10+x35-y10_35 <=1 
C381: x10+x40 <=1 
C382: x10+x41-y10_41 <=1 
C383: x10+x46-y10_46 <=1 
C384: x10+x49 <=1 
C385: x10+x52 <=1 
C386: x10+x53 <=1 
C387: x10+x55-y10_55 <=1 
C388: x10+x56 <=1 
C389: x10+x57-y10_57 <=1 
C390: x10+x59-y10_59 <=1 
C391: x10+x61-y10_61 <=1 
C392: x10+x63-y10_63 <=1 
C393: x11+x14 <=1 
C394: x11+x16-y11_16 <=1 
C395: x11+x17 <=1 
C396: x11+x19-y11_19 <=1 
C397: x11+x21-y11_21 <=1 
C398: x11+x22-y11_22 <=1 
C399: x11+x26-y11_26 <=1 
C400: x11+x28-y11_28 <=1 
C401: x11+x29 <=1 
C402: x11+x31-y11_31 <=1 
C403: x11+x32-y11_32 <=1 
C404: x11+x34 <=1 
C405: x11+x36 <=1 
C406: x11+x39 <=1 
C407: x11+x41-y11_41 <=1 
C408: x11+x42 <=1 
C409: x11+x43 <=1 
C410: x11+x44 <=1 
C411: x11+x45-y11_45 <=1 
C412: x11+x46 <=1 
C413: x11+x47 <=1 
C414: x11+x48 <=1 
C415: x11+x49 <=1 
C416: x11+x54-y11_54 <=1 
C417: x11+x57-y11_57 <=1 
C418: x11+x58-y11_58 <=1 
C419: x11+x59 <=1 
C420: x11+x62-y11_62 <=1 
C421: x11+x63-y11_63 <=1 
C422: x12+x13-y12_13 <=1 
C423: x12+x14 <=1 
C424: x12+x15 <=1 
C425: x12+x17-y12_17 <=1 
C426: x12+x18-y12_18 <=1 
C427: x12+x20 <=1 
C428: x12+x22 <=1 
C429: x12+x23-y12_23 <=1 
C430: x12+x24 <=1 
C431: x12+x27-y12_27 <=1 
C432: x12+x28-y12_28 <=1 
C433: x12+x29 <=1 
C434: x12+x32-y12_32 <=1 
C435: x12+x33 <=1 
C436: x12+x35 <=1 
C437: x12+x36 <=1 
C438: x12+x37-y12_37 <=1 
C439: x12+x38 <=1 
C440: x12+x39-y12_39 <=1 
C441: x12+x41 <=1 
C442: x12+x42-y12_42 <=1 
C443: x12+x43-y12_43 <=1 
C444: x12+x45 <=1 
C445: x12+x46-y12_46 <=1 
C446: x12+x48-y12_48 <=1 
C447: x12+x49 <=1 
C448: x12+x50-y12_50 <=1 
C449: x12+x51-y12_51 <=1 
C450: x12+x52 <=1 
C451: x12+x56 <=1 
C452: x12+x57-y12_57 <=1 
C453: x12+x58-y12_58 <=1 
C454: x12+x59 <=1 
C455: x12+x60-y12_60 <=1 
C456: x12+x61-y12_61 <=1 
C457: x12+x62-y12_62 <=1 
C458: x12+x63 <=1 
C459: x13+x14 <=1 
C460: x13+x16 <=1 
C461: x13+x18-y13_18 <=1 
C462: x13+x19 <=1 
C463: x13+x20-y13_20 <=1 
C464: x13+x21-y13_21 <=1 
C465: x13+x22-y13_22 <=1 
C466: x13+x24 <=1 
C467: x13+x25 <=1 
C468: x13+x26-y13_26 <=1 
C469: x13+x27-y13_27 <=1 
C470: x13+x28-y13_28 <=1 
C471: x13+x30 <=1 
C472: x13+x38 <=1 
C473: x13+x39 <=1 
C474: x13+x40-y13_40 <=1 
C475: x13+x41 <=1 
C476: x13+x42-y13_42 <=1 
C477: x13+x43-y13_43 <=1 
C478: x13+x44-y13_44 <=1 
C479: x13+x45-y13_45 <=1 
C480: x13+x47 <=1 
C481: x13+x48-y13_48 <=1 
C482: x13+x49 <=1 
C483: x13+x53-y13_53 <=1 
C484: x13+x57-y13_57 <=1 
C485: x13+x58 <=1 
C486: x13+x60 <=1 
C487: x13+x61 <=1 
C488: x13+x62 <=1 
C489: x13+x63-y13_63 <=1 
C490: x14+x15-y14_15 <=1 
C491: x14+x16-y14_16 <=1 
C492: x14+x17-y14_17 <=1 
C493: x14+x19 <=1 
C494: x14+x22 <=1 
C495: x14+x23-y14_23 <=1 
C496: x14+x27 <=1 
C497: x14+x29-y14_29 <=1 
C498: x14+x31 <=1 
C499: x14+x32 <=1 
C500: x14+x35-y14_35 <=1 
C501: x14+x36 <=1 
C502: x14+x37-y14_37 <=1 
C503: x14+x39-y14_39 <=1 
C504: x14+x40-y14_40 <=1 
C505: x14+x41-y14_41 <=1 
C506: x14+x42-y14_42 <=1 
C507: x14+x43 <=1 
C508: x14+x45-y14_45 <=1 
C509: x14+x46-y14_46 <=1 
C510: x14+x47 <=1 
C511: x14+x48-y14_48 <=1 
C512: x14+x49 <=1 
C513: x14+x50-y14_50 <=1 
C514: x14+x52-y14_52 <=1 
C515: x14+x55-y14_55 <=1 
C516: x14+x56-y14_56 <=1 
C517: x14+x60-y14_60 <=1 
C518: x14+x62-y14_62 <=1 
C519: x14+x63-y14_63 <=1 
C520: x15+x16 <=1 
C521: x15+x19-y15_19 <=1 
C522: x15+x21-y15_21 <=1 
C523: x15+x22-y15_22 <=1 
C524: x15+x23-y15_23 <=1 
C525: x15+x24 <=1 
C526: x15+x26 <=1 
C527: x15+x27-y15_27 <=1 
C528: x15+x31 <=1 
C529: x15+x32 <=1 
C530: x15+x33 <=1 
C531: x15+x35 <=1 
C532: x15+x36-y15_36 <=1 
C533: x15+x37 <=1 
C534: x15+x39 <=1 
C535: x15+x44 <=1 
C536: x15+x45 <=1 
C537: x15+x47-y15_47 <=1 
C538: x15+x48 <=1 
C539: x15+x49-y15_49 <=1 
C540: x15+x51 <=1 
C541: x15+x52-y15_52 <=1 
C542: x15+x53-y15_53 <=1 
C543: x15+x55 <=1 
C544: x15+x63 <=1 
C545: x16+x17 <=1 
C546: x16+x18-y16_18 <=1 
C547: x16+x21-y16_21 <=1 
C548: x16+x24 <=1 
C549: x16+x25-y16_25 <=1 
C550: x16+x26-y16_26 <=1 
C551: x16+x29-y16_29 <=1 
C552: x16+x31 <=1 
C553: x16+x32 <=1 
C554: x16+x33-y16_33 <=1 
C555: x16+x34-y16_34 <=1 
C556: x16+x35 <=1 
C557: x16+x38 <=1 
C558: x16+x39-y16_39 <=1 
C559: x16+x40-y16_40 <=1 
C560: x16+x41-y16_41 <=1 
C561: x16+x42-y16_42 <=1 
C562: x16+x43-y16_43 <=1 
C563: x16+x44-y16_44 <=1 
C564: x16+x45-y16_45 <=1 
C565: x16+x46 <=1 
C566: x16+x50 <=1 
C567: x16+x54-y16_54 <=1 
C568: x16+x56-y16_56 <=1 
C569: x16+x57-y16_57 <=1 
C570: x16+x58-y16_58 <=1 
C571: x16+x61-y16_61 <=1 
C572: x16+x62 <=1 
C573: x17+x18 <=1 
C574: x17+x20 <=1 
C575: x17+x21-y17_21 <=1 
C576: x17+x22-y17_22 <=1 
C577: x17+x23-y17_23 <=1 
C578: x17+x24 <=1 
C579: x17+x25 <=1 
C580: x17+x26 <=1 
C581: x17+x27 <=1 
C582: x17+x28-y17_28 <=1 
C583: x17+x29-y17_29 <=1 
C584: x17+x30-y17_30 <=1 
C585: x17+x31 <=1 
C586: x17+x32-y17_32 <=1 
C587: x17+x33 <=1 
C588: x17+x34-y17_34 <=1 
C589: x17+x35 <=1 
C590: x17+x36-y17_36 <=1 
C591: x17+x38 <=1 
C592: x17+x42 <=1 
C593: x17+x43 <=1 
C594: x17+x44 <=1 
C595: x17+x45 <=1 
C596: x17+x46 <=1 
C597: x17+x49 <=1 
C598: x17+x50-y17_50 <=1 
C599: x17+x51-y17_51 <=1 
C600: x17+x53-y17_53 <=1 
C601: x17+x54-y17_54 <=1 
C602: x17+x55 <=1 
C603: x17+x56 <=1 
C604: x17+x57-y17_57 <=1 
C605: x17+x58-y17_58 <=1 
C606: x17+x59-y17_59 <=1 
C607: x17+x60-y17_60 <=1 
C608: x17+x62 <=1 
C609: x18+x19 <=1 
C610: x18+x20-y18_20 <=1 
C611: x18+x21 <=1 
C612: x18+x22-y18_22 <=1 
C613: x18+x24 <=1 
C614: x18+x25 <=1 
C615: x18+x26-y18_26 <=1 
C616: x18+x27 <=1 
C617: x18+x30-y18_30 <=1 
C618: x18+x33-y18_33 <=1 
C619: x18+x34 <=1 
C620: x18+x36 <=1 
C621: x18+x37 <=1 
C622: x18+x39-y18_39 <=1 
C623: x18+x40 <=1 
C624: x18+x41 <=1 
C625: x18+x43 <=1 
C626: x18+x45-y18_45 <=1 
C627: x18+x46-y18_46 <=1 
C628: x18+x47-y18_47 <=1 
C629: x18+x49-y18_49 <=1 
C630: x18+x52-y18_52 <=1 
C631: x18+x53 <=1 
C632: x18+x54-y18_54 <=1 
C633: x18+x55 <=1 
C634: x18+x56 <=1 
C635: x18+x57-y18_57 <=1 
C636: x18+x58 <=1 
C637: x19+x22-y19_22 <=1 
C638: x19+x23 <=1 
C639: x19+x24 <=1 
C640: x19+x26-y19_26 <=1 
C641: x19+x27 <=1 
C642: x19+x31-y19_31 <=1 
C643: x19+x32 <=1 
C644: x19+x33 <=1 
C645: x19+x34-y19_34 <=1 
C646: x19+x35 <=1 
C647: x19+x36-y19_36 <=1 
C648: x19+x38 <=1 
C649: x19+x41-y19_41 <=1 
C650: x19+x45 <=1 
C651: x19+x46 <=1 
C652: x19+x47-y19_47 <=1 
C653: x19+x50-y19_50 <=1 
C654: x19+x51 <=1 
C655: x19+x55-y19_55 <=1 
C656: x19+x56 <=1 
C657: x19+x57-y19_57 <=1 
C658: x19+x58-y19_58 <=1 
C659: x19+x59-y19_59 <=1 
C660: x19+x60-y19_60 <=1 
C661: x19+x61 <=1 
C662: x19+x63 <=1 
C663: x20+x22-y20_22 <=1 
C664: x20+x24-y20_24 <=1 
C665: x20+x30 <=1 
C666: x20+x31-y20_31 <=1 
C667: x20+x33 <=1 
C668: x20+x34-y20_34 <=1 
C669: x20+x35 <=1 
C670: x20+x36 <=1 
C671: x20+x38-y20_38 <=1 
C672: x20+x40 <=1 
C673: x20+x41 <=1 
C674: x20+x42 <=1 
C675: x20+x44 <=1 
C676: x20+x45-y20_45 <=1 
C677: x20+x46-y20_46 <=1 
C678: x20+x47 <=1 
C679: x20+x50 <=1 
C680: x20+x51-y20_51 <=1 
C681: x20+x52 <=1 
C682: x20+x54 <=1 
C683: x20+x56 <=1 
C684: x20+x58-y20_58 <=1 
C685: x20+x59 <=1 
C686: x20+x61-y20_61 <=1 
C687: x20+x62-y20_62 <=1 
C688: x20+x63-y20_63 <=1 
C689: x21+x22 <=1 
C690: x21+x25-y21_25 <=1 
C691: x21+x26-y21_26 <=1 
C692: x21+x28-y21_28 <=1 
C693: x21+x29-y21_29 <=1 
C694: x21+x30 <=1 
C695: x21+x32 <=1 
C696: x21+x34 <=1 
C697: x21+x35-y21_35 <=1 
C698: x21+x36-y21_36 <=1 
C699: x21+x37-y21_37 <=1 
C700: x21+x40-y21_40 <=1 
C701: x21+x43 <=1 
C702: x21+x46-y21_46 <=1 
C703: x21+x48-y21_48 <=1 
C704: x21+x49 <=1 
C705: x21+x51-y21_51 <=1 
C706: x21+x52 <=1 
C707: x21+x53-y21_53 <=1 
C708: x21+x54 <=1 
C709: x21+x56-y21_56 <=1 
C710: x21+x57 <=1 
C711: x21+x58-y21_58 <=1 
C712: x21+x60 <=1 
C713: x21+x61-y21_61 <=1 
C714: x22+x25-y22_25 <=1 
C715: x22+x27 <=1 
C716: x22+x29 <=1 
C717: x22+x31 <=1 
C718: x22+x32 <=1 
C719: x22+x34-y22_34 <=1 
C720: x22+x35 <=1 
C721: x22+x36-y22_36 <=1 
C722: x22+x38-y22_38 <=1 
C723: x22+x39-y22_39 <=1 
C724: x22+x40-y22_40 <=1 
C725: x22+x41-y22_41 <=1 
C726: x22+x42 <=1 
C727: x22+x43 <=1 
C728: x22+x45-y22_45 <=1 
C729: x22+x46 <=1 
C730: x22+x48-y22_48 <=1 
C731: x22+x49-y22_49 <=1 
C732: x22+x50 <=1 
C733: x22+x51-y22_51 <=1 
C734: x22+x52 <=1 
C735: x22+x53 <=1 
C736: x22+x56-y22_56 <=1 
C737: x22+x57 <=1 
C738: x22+x58-y22_58 <=1 
C739: x22+x59-y22_59 <=1 
C740: x22+x61 <=1 
C741: x23+x24-y23_24 <=1 
C742: x23+x26-y23_26 <=1 
C743: x23+x32 <=1 
C744: x23+x33-y23_33 <=1 
C745: x23+x35-y23_35 <=1 
C746: x23+x36 <=1 
C747: x23+x37 <=1 
C748: x23+x39-y23_39 <=1 
C749: x23+x42 <=1 
C750: x23+x43 <=1 
C751: x23+x44 <=1 
C752: x23+x45-y23_45 <=1 
C753: x23+x49-y23_49 <=1 
C754: x23+x50 <=1 
C755: x23+x51 <=1 
C756: x23+x52 <=1 
C757: x23+x57 <=1 
C758: x23+x58-y23_58 <=1 
C759: x23+x61 <=1 
C760: x23+x62-y23_62 <=1 
C761: x23+x63-y23_63 <=1 
C762: x24+x29 <=1 
C763: x24+x30 <=1 
C764: x24+x31-y24_31 <=1 
C765: x24+x33-y24_33 <=1 
C766: x24+x34-y24_34 <=1 
C767: x24+x36 <=1 
C768: x24+x42-y24_42 <=1 
C769: x24+x43-y24_43 <=1 
C770: x24+x44 <=1 
C771: x24+x45-y24_45 <=1 
C772: x24+x47 <=1 
C773: x24+x51 <=1 
C774: x24+x52 <=1 
C775: x24+x53-y24_53 <=1 
C776: x24+x54 <=1 
C777: x24+x55 <=1 
C778: x24+x56-y24_56 <=1 
C779: x24+x58-y24_58 <=1 
C780: x24+x59 <=1 
C781: x24+x60 <=1 
C782: x24+x61-y24_61 <=1 
C783: x24+x62 <=1 
C784: x24+x63 <=1 
C785: x25+x26-y25_26 <=1 
C786: x25+x27 <=1 
C787: x25+x28 <=1 
C788: x25+x29-y25_29 <=1 
C789: x25+x30 <=1 
C790: x25+x31 <=1 
C791: x25+x32-y25_32 <=1 
C792: x25+x33-y25_33 <=1 
C793: x25+x34-y25_34 <=1 
C794: x25+x36-y25_36 <=1 
C795: x25+x37 <=1 
C796: x25+x38-y25_38 <=1 
C797: x25+x39-y25_39 <=1 
C798: x25+x40-y25_40 <=1 
C799: x25+x41 <=1 
C800: x25+x42 <=1 
C801: x25+x43-y25_43 <=1 
C802: x25+x44 <=1 
C803: x25+x46 <=1 
C804: x25+x47 <=1 
C805: x25+x49 <=1 
C806: x25+x50 <=1 
C807: x25+x56 <=1 
C808: x25+x57-y25_57 <=1 
C809: x25+x59-y25_59 <=1 
C810: x25+x60-y25_60 <=1 
C811: x25+x61-y25_61 <=1 
C812: x25+x62-y25_62 <=1 
C813: x25+x63 <=1 
C814: x26+x30-y26_30 <=1 
C815: x26+x31-y26_31 <=1 
C816: x26+x32-y26_32 <=1 
C817: x26+x33 <=1 
C818: x26+x34-y26_34 <=1 
C819: x26+x35-y26_35 <=1 
C820: x26+x41-y26_41 <=1 
C821: x26+x42 <=1 
C822: x26+x43-y26_43 <=1 
C823: x26+x45-y26_45 <=1 
C824: x26+x46 <=1 
C825: x26+x47 <=1 
C826: x26+x50 <=1 
C827: x26+x51-y26_51 <=1 
C828: x26+x53-y26_53 <=1 
C829: x26+x54 <=1 
C830: x26+x55-y26_55 <=1 
C831: x26+x56 <=1 
C832: x26+x57 <=1 
C833: x26+x60-y26_60 <=1 
C834: x26+x61-y26_61 <=1 
C835: x26+x62-y26_62 <=1 
C836: x26+x63 <=1 
C837: x27+x28 <=1 
C838: x27+x29-y27_29 <=1 
C839: x27+x30-y27_30 <=1 
C840: x27+x36 <=1 
C841: x27+x38-y27_38 <=1 
C842: x27+x42-y27_42 <=1 
C843: x27+x44 <=1 
C844: x27+x45 <=1 
C845: x27+x48 <=1 
C846: x27+x49-y27_49 <=1 
C847: x27+x50-y27_50 <=1 
C848: x27+x51 <=1 
C849: x27+x52-y27_52 <=1 
C850: x27+x54 <=1 
C851: x27+x55-y27_55 <=1 
C852: x27+x56-y27_56 <=1 
C853: x27+x57 <=1 
C854: x27+x59 <=1 
C855: x28+x29-y28_29 <=1 
C856: x28+x30 <=1 
C857: x28+x32 <=1 
C858: x28+x34 <=1 
C859: x28+x35-y28_35 <=1 
C860: x28+x36-y28_36 <=1 
C861: x28+x37 <=1 
C862: x28+x40-y28_40 <=1 
C863: x28+x41-y28_41 <=1 
C864: x28+x42-y28_42 <=1 
C865: x28+x43-y28_43 <=1 
C866: x28+x44-y28_44 <=1 
C867: x28+x45-y28_45 <=1 
C868: x28+x47 <=1 
C869: x28+x49-y28_49 <=1 
C870: x28+x53-y28_53 <=1 
C871: x28+x54 <=1 
C872: x28+x55 <=1 
C873: x28+x57 <=1 
C874: x28+x59 <=1 
C875: x28+x60-y28_60 <=1 
C876: x28+x61-y28_61 <=1 
C877: x29+x30 <=1 
C878: x29+x31 <=1 
C879: x29+x32-y29_32 <=1 
C880: x29+x33-y29_33 <=1 
C881: x29+x35-y29_35 <=1 
C882: x29+x36-y29_36 <=1 
C883: x29+x37 <=1 
C884: x29+x38 <=1 
C885: x29+x39-y29_39 <=1 
C886: x29+x42-y29_42 <=1 
C887: x29+x43-y29_43 <=1 
C888: x29+x44-y29_44 <=1 
C889: x29+x45 <=1 
C890: x29+x46-y29_46 <=1 
C891: x29+x47-y29_47 <=1 
C892: x29+x54-y29_54 <=1 
C893: x29+x56-y29_56 <=1 
C894: x29+x57 <=1 
C895: x29+x58 <=1 
C896: x29+x60 <=1 
C897: x29+x61 <=1 
C898: x29+x62-y29_62 <=1 
C899: x30+x31 <=1 
C900: x30+x32 <=1 
C901: x30+x33 <=1 
C902: x30+x34-y30_34 <=1 
C903: x30+x35-y30_35 <=1 
C904: x30+x36-y30_36 <=1 
C905: x30+x37-y30_37 <=1 
C906: x30+x38-y30_38 <=1 
C907: x30+x39 <=1 
C908: x30+x40-y30_40 <=1 
C909: x30+x42 <=1 
C910: x30+x43 <=1 
C911: x30+x44 <=1 
C912: x30+x45-y30_45 <=1 
C913: x30+x47-y30_47 <=1 
C914: x30+x50-y30_50 <=1 
C915: x30+x52 <=1 
C916: x30+x54-y30_54 <=1 
C917: x30+x57-y30_57 <=1 
C918: x30+x58-y30_58 <=1 
C919: x30+x61-y30_61 <=1 
C920: x30+x63-y30_63 <=1 
C921: x31+x32 <=1 
C922: x31+x39 <=1 
C923: x31+x40 <=1 
C924: x31+x41 <=1 
C925: x31+x42-y31_42 <=1 
C926: x31+x44 <=1 
C927: x31+x45 <=1 
C928: x31+x46-y31_46 <=1 
C929: x31+x49 <=1 
C930: x31+x50-y31_50 <=1 
C931: x31+x52 <=1 
C932: x31+x55 <=1 
C933: x31+x57 <=1 
C934: x31+x58-y31_58 <=1 
C935: x31+x59-y31_59 <=1 
C936: x31+x60-y31_60 <=1 
C937: x31+x61 <=1 
C938: x32+x33-y32_33 <=1 
C939: x32+x34-y32_34 <=1 
C940: x32+x35-y32_35 <=1 
C941: x32+x37 <=1 
C942: x32+x39 <=1 
C943: x32+x40 <=1 
C944: x32+x41 <=1 
C945: x32+x43 <=1 
C946: x32+x44 <=1 
C947: x32+x46 <=1 
C948: x32+x47 <=1 
C949: x32+x48-y32_48 <=1 
C950: x32+x49 <=1 
C951: x32+x51 <=1 
C952: x32+x52-y32_52 <=1 
C953: x32+x55 <=1 
C954: x32+x57-y32_57 <=1 
C955: x32+x59 <=1 
C956: x32+x60 <=1 
C957: x32+x61 <=1 
C958: x32+x63-y32_63 <=1 
C959: x33+x35 <=1 
C960: x33+x36 <=1 
C961: x33+x38-y33_38 <=1 
C962: x33+x41 <=1 
C963: x33+x43-y33_43 <=1 
C964: x33+x44 <=1 
C965: x33+x45-y33_45 <=1 
C966: x33+x46 <=1 
C967: x33+x49-y33_49 <=1 
C968: x33+x50-y33_50 <=1 
C969: x33+x51 <=1 
C970: x33+x52 <=1 
C971: x33+x55 <=1 
C972: x33+x57-y33_57 <=1 
C973: x33+x58 <=1 
C974: x33+x63 <=1 
C975: x34+x35 <=1 
C976: x34+x37-y34_37 <=1 
C977: x34+x38 <=1 
C978: x34+x44 <=1 
C979: x34+x46 <=1 
C980: x34+x47 <=1 
C981: x34+x48 <=1 
C982: x34+x50-y34_50 <=1 
C983: x34+x51 <=1 
C984: x34+x52-y34_52 <=1 
C985: x34+x53 <=1 
C986: x34+x54 <=1 
C987: x34+x55 <=1 
C988: x34+x58 <=1 
C989: x34+x59 <=1 
C990: x34+x61 <=1 
C991: x34+x62 <=1 
C992: x34+x63-y34_63 <=1 
C993: x35+x36 <=1 
C994: x35+x39-y35_39 <=1 
C995: x35+x42 <=1 
C996: x35+x43 <=1 
C997: x35+x45-y35_45 <=1 
C998: x35+x46-y35_46 <=1 
C999: x35+x47-y35_47 <=1 
C1000: x35+x48-y35_48 <=1 
C1001: x35+x50-y35_50 <=1 
C1002: x35+x51 <=1 
C1003: x35+x52-y35_52 <=1 
C1004: x35+x53-y35_53 <=1 
C1005: x35+x56-y35_56 <=1 
C1006: x35+x57 <=1 
C1007: x35+x58-y35_58 <=1 
C1008: x35+x59 <=1 
C1009: x35+x62 <=1 
C1010: x36+x38-y36_38 <=1 
C1011: x36+x39-y36_39 <=1 
C1012: x36+x41 <=1 
C1013: x36+x43 <=1 
C1014: x36+x45 <=1 
C1015: x36+x49 <=1 
C1016: x36+x50-y36_50 <=1 
C1017: x36+x53 <=1 
C1018: x36+x54-y36_54 <=1 
C1019: x36+x56-y36_56 <=1 
C1020: x36+x58 <=1 
C1021: x36+x60-y36_60 <=1 
C1022: x36+x61 <=1 
C1023: x37+x38-y37_38 <=1 
C1024: x37+x40-y37_40 <=1 
C1025: x37+x42-y37_42 <=1 
C1026: x37+x44-y37_44 <=1 
C1027: x37+x46 <=1 
C1028: x37+x49-y37_49 <=1 
C1029: x37+x50-y37_50 <=1 
C1030: x37+x54 <=1 
C1031: x37+x56 <=1 
C1032: x37+x58 <=1 
C1033: x37+x61-y37_61 <=1 
C1034: x37+x62 <=1 
C1035: x37+x63 <=1 
C1036: x38+x39 <=1 
C1037: x38+x40-y38_40 <=1 
C1038: x38+x41 <=1 
C1039: x38+x43-y38_43 <=1 
C1040: x38+x45-y38_45 <=1 
C1041: x38+x46 <=1 
C1042: x38+x48-y38_48 <=1 
C1043: x38+x49-y38_49 <=1 
C1044: x38+x52-y38_52 <=1 
C1045: x38+x53-y38_53 <=1 
C1046: x38+x56 <=1 
C1047: x38+x57 <=1 
C1048: x38+x60-y38_60 <=1 
C1049: x38+x61-y38_61 <=1 
C1050: x38+x62-y38_62 <=1 
C1051: x38+x63-y38_63 <=1 
C1052: x39+x40-y39_40 <=1 
C1053: x39+x41-y39_41 <=1 
C1054: x39+x42 <=1 
C1055: x39+x43 <=1 
C1056: x39+x44-y39_44 <=1 
C1057: x39+x45-y39_45 <=1 
C1058: x39+x46 <=1 
C1059: x39+x47 <=1 
C1060: x39+x48 <=1 
C1061: x39+x49 <=1 
C1062: x39+x50-y39_50 <=1 
C1063: x39+x51-y39_51 <=1 
C1064: x39+x52-y39_52 <=1 
C1065: x39+x53-y39_53 <=1 
C1066: x39+x54 <=1 
C1067: x39+x59 <=1 
C1068: x39+x62-y39_62 <=1 
C1069: x40+x42-y40_42 <=1 
C1070: x40+x43 <=1 
C1071: x40+x44-y40_44 <=1 
C1072: x40+x45-y40_45 <=1 
C1073: x40+x49 <=1 
C1074: x40+x50-y40_50 <=1 
C1075: x40+x51 <=1 
C1076: x40+x52-y40_52 <=1 
C1077: x40+x54-y40_54 <=1 
C1078: x40+x55-y40_55 <=1 
C1079: x40+x57 <=1 
C1080: x40+x58-y40_58 <=1 
C1081: x40+x60 <=1 
C1082: x40+x61-y40_61 <=1 
C1083: x40+x62 <=1 
C1084: x40+x63 <=1 
C1085: x41+x43 <=1 
C1086: x41+x45-y41_45 <=1 
C1087: x41+x46 <=1 
C1088: x41+x49-y41_49 <=1 
C1089: x41+x50-y41_50 <=1 
C1090: x41+x51 <=1 
C1091: x41+x52-y41_52 <=1 
C1092: x41+x53-y41_53 <=1 
C1093: x41+x56 <=1 
C1094: x41+x57-y41_57 <=1 
C1095: x41+x58-y41_58 <=1 
C1096: x41+x59-y41_59 <=1 
C1097: x41+x61 <=1 
C1098: x42+x43-y42_43 <=1 
C1099: x42+x45 <=1 
C1100: x42+x46-y42_46 <=1 
C1101: x42+x48 <=1 
C1102: x42+x49-y42_49 <=1 
C1103: x42+x50-y42_50 <=1 
C1104: x42+x51 <=1 
C1105: x42+x52 <=1 
C1106: x42+x53-y42_53 <=1 
C1107: x42+x54-y42_54 <=1 
C1108: x42+x57-y42_57 <=1 
C1109: x42+x62-y42_62 <=1 
C1110: x43+x44 <=1 
C1111: x43+x45 <=1 
C1112: x43+x46-y43_46 <=1 
C1113: x43+x47 <=1 
C1114: x43+x49 <=1 
C1115: x43+x50-y43_50 <=1 
C1116: x43+x52-y43_52 <=1 
C1117: x43+x54-y43_54 <=1 
C1118: x43+x56-y43_56 <=1 
C1119: x43+x58-y43_58 <=1 
C1120: x43+x59 <=1 
C1121: x43+x61-y43_61 <=1 
C1122: x43+x62-y43_62 <=1 
C1123: x44+x49-y44_49 <=1 
C1124: x44+x50 <=1 
C1125: x44+x52 <=1 
C1126: x44+x54-y44_54 <=1 
C1127: x44+x55-y44_55 <=1 
C1128: x44+x56 <=1 
C1129: x44+x57-y44_57 <=1 
C1130: x44+x58 <=1 
C1131: x44+x59-y44_59 <=1 
C1132: x44+x60-y44_60 <=1 
C1133: x44+x62 <=1 
C1134: x44+x63-y44_63 <=1 
C1135: x45+x47 <=1 
C1136: x45+x48-y45_48 <=1 
C1137: x45+x49-y45_49 <=1 
C1138: x45+x50-y45_50 <=1 
C1139: x45+x51 <=1 
C1140: x45+x52 <=1 
C1141: x45+x53-y45_53 <=1 
C1142: x45+x55-y45_55 <=1 
C1143: x45+x56-y45_56 <=1 
C1144: x45+x57-y45_57 <=1 
C1145: x45+x58 <=1 
C1146: x45+x59-y45_59 <=1 
C1147: x45+x60 <=1 
C1148: x46+x47 <=1 
C1149: x46+x51-y46_51 <=1 
C1150: x46+x53-y46_53 <=1 
C1151: x46+x54-y46_54 <=1 
C1152: x46+x57-y46_57 <=1 
C1153: x46+x63-y46_63 <=1 
C1154: x47+x48 <=1 
C1155: x47+x51-y47_51 <=1 
C1156: x47+x52-y47_52 <=1 
C1157: x47+x53 <=1 
C1158: x47+x56-y47_56 <=1 
C1159: x47+x57-y47_57 <=1 
C1160: x47+x58-y47_58 <=1 
C1161: x47+x60 <=1 
C1162: x47+x61-y47_61 <=1 
C1163: x47+x62-y47_62 <=1 
C1164: x48+x49 <=1 
C1165: x48+x50-y48_50 <=1 
C1166: x48+x51 <=1 
C1167: x48+x55 <=1 
C1168: x48+x56 <=1 
C1169: x48+x57-y48_57 <=1 
C1170: x48+x58 <=1 
C1171: x48+x59-y48_59 <=1 
C1172: x48+x60 <=1 
C1173: x48+x61 <=1 
C1174: x48+x62-y48_62 <=1 
C1175: x48+x63 <=1 
C1176: x49+x53 <=1 
C1177: x49+x54-y49_54 <=1 
C1178: x49+x55-y49_55 <=1 
C1179: x49+x60 <=1 
C1180: x49+x61-y49_61 <=1 
C1181: x50+x51-y50_51 <=1 
C1182: x50+x52-y50_52 <=1 
C1183: x50+x53 <=1 
C1184: x50+x54 <=1 
C1185: x50+x55 <=1 
C1186: x50+x56-y50_56 <=1 
C1187: x50+x57 <=1 
C1188: x50+x58-y50_58 <=1 
C1189: x50+x59-y50_59 <=1 
C1190: x50+x61-y50_61 <=1 
C1191: x50+x63-y50_63 <=1 
C1192: x51+x53 <=1 
C1193: x51+x55 <=1 
C1194: x51+x57-y51_57 <=1 
C1195: x51+x60 <=1 
C1196: x51+x61-y51_61 <=1 
C1197: x51+x62 <=1 
C1198: x51+x63 <=1 
C1199: x52+x53 <=1 
C1200: x52+x55-y52_55 <=1 
C1201: x52+x58 <=1 
C1202: x52+x60-y52_60 <=1 
C1203: x52+x61-y52_61 <=1 
C1204: x52+x62-y52_62 <=1 
C1205: x52+x63-y52_63 <=1 
C1206: x53+x56 <=1 
C1207: x53+x59 <=1 
C1208: x53+x60 <=1 
C1209: x53+x61 <=1 
C1210: x53+x63 <=1 
C1211: x54+x55 <=1 
C1212: x54+x57 <=1 
C1213: x54+x61-y54_61 <=1 
C1214: x55+x57 <=1 
C1215: x55+x59-y55_59 <=1 
C1216: x55+x61-y55_61 <=1 
C1217: x55+x62-y55_62 <=1 
C1218: x56+x58-y56_58 <=1 
C1219: x56+x59-y56_59 <=1 
C1220: x56+x60 <=1 
C1221: x56+x61 <=1 
C1222: x56+x63-y56_63 <=1 
C1223: x57+x59 <=1 
C1224: x57+x61 <=1 
C1225: x57+x62 <=1 
C1226: x58+x59-y58_59 <=1 
C1227: x58+x61-y58_61 <=1 
C1228: x58+x62 <=1 
C1229: x58+x63 <=1 
C1230: x59+x62-y59_62 <=1 
C1231: x60+x61-y60_61 <=1 
C1232: x60+x62 <=1 
C1233: x60+x63-y60_63 <=1 
C1234: x61+x62-y61_62 <=1 
C1235: x62+x63-y62_63 <=1 

binary
x0
x1
x2
x3
x4
x5
x6
x7
x8
x9
x10
x11
x12
x13
x14
x15
x16
x17
x18
x19
x20
x21
x22
x23
x24
x25
x26
x27
x28
x29
x30
x31
x32
x33
x34
x35
x36
x37
x38
x39
x40
x41
x42
x43
x44
x45
x46
x47
x48
x49
x50
x51
x52
x53
x54
x55
x56
x57
x58
x59
x60
x61
x62
x63
