problem_generation/data/GISP/train/er_n=64_m=1235_p=0.60_SET2_setparam=100.00_alpha=0.50_825.sol
objective value:                                 1261
x0                                                  1 	(obj:100)
x4                                                  1 	(obj:100)
x14                                                 1 	(obj:100)
x21                                                 1 	(obj:100)
x23                                                 1 	(obj:100)
x24                                                 1 	(obj:100)
x28                                                 1 	(obj:100)
x35                                                 1 	(obj:100)
x40                                                 1 	(obj:100)
x41                                                 1 	(obj:100)
x45                                                 1 	(obj:100)
x48                                                 1 	(obj:100)
x53                                                 1 	(obj:100)
y0_23                                               1 	(obj:-1)
y28_53                                              1 	(obj:-1)
y40_45                                              1 	(obj:-1)
y14_23                                              1 	(obj:-1)
y21_40                                              1 	(obj:-1)
y21_35                                              1 	(obj:-1)
y24_45                                              1 	(obj:-1)
y35_45                                              1 	(obj:-1)
y45_53                                              1 	(obj:-1)
y0_41                                               1 	(obj:-1)
y23_24                                              1 	(obj:-1)
y45_48                                              1 	(obj:-1)
y0_40                                               1 	(obj:-1)
y4_28                                               1 	(obj:-1)
y14_41                                              1 	(obj:-1)
y41_45                                              1 	(obj:-1)
y14_45                                              1 	(obj:-1)
y0_21                                               1 	(obj:-1)
y21_53                                              1 	(obj:-1)
y14_40                                              1 	(obj:-1)
y21_48                                              1 	(obj:-1)
y14_35                                              1 	(obj:-1)
y24_53                                              1 	(obj:-1)
y35_53                                              1 	(obj:-1)
y28_41                                              1 	(obj:-1)
y35_48                                              1 	(obj:-1)
y28_45                                              1 	(obj:-1)
y28_40                                              1 	(obj:-1)
y21_28                                              1 	(obj:-1)
y28_35                                              1 	(obj:-1)
y4_23                                               1 	(obj:-1)
y23_45                                              1 	(obj:-1)
y4_45                                               1 	(obj:-1)
y41_53                                              1 	(obj:-1)
y23_35                                              1 	(obj:-1)
y4_35                                               1 	(obj:-1)
y14_48                                              1 	(obj:-1)
y0_24                                               1 	(obj:-1)
y0_28                                               1 	(obj:-1)
